NAME : eil51-5
COMMENT : 51-city problem (Christofides/Eilon)
TYPE : CTSP
DIMENSION : 51
SALESMEN : 5
EDGE_WEIGHT_TYPE : EUC_2D
NODE_COORD_SECTION
1 42 41
2 5 25
3 10 17
4 30 15
5 5 6
6 13 13
7 21 10
8 58 27
9 59 15
10 36 16
11 39 10
12 61 33
13 46 10
14 62 42
15 52 64
16 62 63
17 57 58
18 63 69
19 58 48
20 31 62
21 42 57
22 37 69
23 27 68
24 43 67
25 25 55
26 5 64
27 17 63
28 8 52
29 7 38
30 12 42
31 16 57
32 40 30
33 49 49
34 37 52
35 52 41
36 31 32
37 17 33
38 38 46
39 56 37
40 25 32
41 45 35
42 32 22
43 51 31
44 21 47
45 30 48
46 20 26
47 30 40
48 48 28
49 52 33
50 27 23
51 32 39
CTSP_SET_SECTION
1 2 3 4 5 6 7 -1
2 8 9 10 11 12 13 -1
3 15 15 16 17 18 19 -1
4 20 21 22 23 24 25 -1
5 26 27 28 29 30 31 -1
DEPOT_SECTION
1
-1
EOF
